Assets/LKHProbs~/skull.10.tsp
NAME : GeneratedProblem
COMMENT : SVGCrosshatch
TYPE : TSP
DIMENSION : 8
EDGE_WEIGHT_TYPE : EUC_2D
NODE_COORD_SECTION
1 6100 12100
2 6100 12200
3 6200 12100
4 6200 12200
5 6300 12100
6 6300 12200
7 6400 12100
8 6400 12200
EOF
