Assets/LKHProbs~/skull.10.out.txt
NAME : GeneratedProblem.800.tour
COMMENT : Length = 800
COMMENT : Found by LKH [Keld Helsgaun] Sun Nov 25 13:17:35 2018
TYPE : TOUR
DIMENSION : 8
TOUR_SECTION
1
2
4
6
8
7
5
3
-1
EOF
